p wcnf 146 292 293 
1 -58 62 0 
1 97 -139 0 
1 99 -135 0 
1 3 -74 0 
1 -14 127 0 
1 24 -101 0 
1 120 142 0 
1 117 59 0 
1 -72 -63 0 
1 72 52 0 
1 -117 136 0 
1 140 -23 0 
1 127 -90 0 
1 54 -73 0 
1 -96 -144 0 
1 138 -115 0 
1 -100 -127 0 
1 -133 103 0 
1 75 -58 0 
1 139 38 0 
1 -140 107 0 
1 -54 -42 0 
1 23 49 0 
1 127 21 0 
1 -13 -17 0 
1 51 99 0 
1 -37 110 0 
1 67 -21 0 
1 -64 -99 0 
1 -3 -109 0 
1 114 79 0 
1 -35 136 0 
1 -138 54 0 
1 39 59 0 
1 -21 91 0 
1 -89 29 0 
1 92 -83 0 
1 10 123 0 
1 128 -127 0 
1 68 8 0 
1 -100 -127 0 
1 63 25 0 
1 104 43 0 
1 -108 -69 0 
1 102 62 0 
1 89 136 0 
1 131 -134 0 
1 41 -119 0 
1 -41 97 0 
1 141 30 0 
1 144 127 0 
1 66 -95 0 
1 -13 -87 0 
1 28 26 0 
1 -71 -100 0 
1 19 42 0 
1 -126 -34 0 
1 -108 -118 0 
1 88 -53 0 
1 -123 -101 0 
1 22 -82 0 
1 -37 -16 0 
1 27 99 0 
1 -104 -137 0 
1 -50 -134 0 
1 121 129 0 
1 13 61 0 
1 -51 -112 0 
1 -89 -23 0 
1 -43 56 0 
1 -126 -93 0 
1 -80 -48 0 
1 -46 -79 0 
1 12 -25 0 
1 67 -81 0 
1 58 -7 0 
1 30 -125 0 
1 -55 113 0 
1 98 -21 0 
1 30 85 0 
1 -96 -119 0 
1 27 121 0 
1 15 48 0 
1 24 -89 0 
1 117 130 0 
1 -75 125 0 
1 88 31 0 
1 -97 -109 0 
1 125 -48 0 
1 -139 80 0 
1 -18 132 0 
1 124 -42 0 
1 71 37 0 
1 95 -102 0 
1 94 -52 0 
1 -65 72 0 
1 -111 -25 0 
1 -26 -85 0 
1 -118 43 0 
1 49 -36 0 
1 -117 -68 0 
1 -125 69 0 
1 48 52 0 
1 -17 59 0 
1 -18 117 0 
1 -146 132 0 
1 -137 -116 0 
1 -114 77 0 
1 -109 44 0 
1 -17 -134 0 
1 14 142 0 
1 -80 -90 0 
1 -124 -2 0 
1 -92 73 0 
1 -14 91 0 
1 -67 10 0 
1 -117 59 0 
1 43 -27 0 
1 82 -110 0 
1 -117 64 0 
1 98 123 0 
1 -54 -48 0 
1 67 88 0 
1 -126 -90 0 
1 -30 101 0 
1 71 -78 0 
1 89 139 0 
1 129 74 0 
1 -105 -111 0 
1 -56 127 0 
1 -139 24 0 
1 92 -30 0 
1 -66 32 0 
1 113 84 0 
1 115 -7 0 
1 19 -82 0 
1 81 135 0 
1 47 -141 0 
1 -125 -124 0 
1 -68 133 0 
1 -146 90 0 
1 -111 -82 0 
1 -16 127 0 
1 10 58 0 
1 -67 87 0 
1 76 68 0 
1 -92 -77 0 
1 -100 40 0 
1 110 20 0 
1 -69 79 0 
1 -114 -133 0 
1 78 -50 0 
1 119 -118 0 
1 -20 -131 0 
1 -4 74 0 
1 -5 -2 0 
1 -146 -28 0 
1 -37 -60 0 
1 117 76 0 
1 -141 52 0 
1 139 -20 0 
1 16 114 0 
1 -134 122 0 
1 95 -135 0 
1 -146 -60 0 
1 -84 143 0 
1 -131 66 0 
1 87 61 0 
1 -64 -91 0 
1 -3 24 0 
1 135 -21 0 
1 135 -71 0 
1 48 -131 0 
1 -101 27 0 
1 -25 -122 0 
1 83 121 0 
1 116 -121 0 
1 -65 47 0 
1 56 77 0 
1 -32 -12 0 
1 69 -15 0 
1 70 -38 0 
1 -40 -68 0 
1 16 82 0 
1 -81 143 0 
1 146 -139 0 
1 -114 -8 0 
1 136 101 0 
1 89 121 0 
1 -141 -41 0 
1 34 5 0 
1 74 -8 0 
1 -96 -81 0 
1 -85 42 0 
1 78 25 0 
1 -18 145 0 
1 145 60 0 
1 129 105 0 
1 60 100 0 
1 16 -38 0 
1 -3 -23 0 
1 80 -87 0 
1 52 -84 0 
1 -22 -115 0 
1 -116 -109 0 
1 -4 11 0 
1 -59 29 0 
1 80 -19 0 
1 135 -137 0 
1 96 126 0 
1 145 -132 0 
1 -10 90 0 
1 21 62 0 
1 -3 20 0 
1 -121 7 0 
1 66 100 0 
1 65 103 0 
1 -112 -69 0 
1 121 93 0 
1 -90 93 0 
1 131 13 0 
1 -40 73 0 
1 -96 -144 0 
1 95 -82 0 
1 64 91 0 
1 57 -33 0 
1 -7 -67 0 
1 32 -91 0 
1 -36 141 0 
1 -104 127 0 
1 9 45 0 
1 -101 -104 0 
1 140 -20 0 
1 15 60 0 
1 124 -91 0 
1 -139 21 0 
1 116 45 0 
1 -81 135 0 
1 -88 97 0 
1 -109 -29 0 
1 30 65 0 
1 76 96 0 
1 -138 140 0 
1 -132 -60 0 
1 -99 36 0 
1 -135 -53 0 
1 -89 -56 0 
1 39 -124 0 
1 -27 69 0 
1 136 -88 0 
1 58 73 0 
1 -130 -58 0 
1 -72 -83 0 
1 128 104 0 
1 111 -17 0 
1 -51 84 0 
1 56 -145 0 
1 22 36 0 
1 81 12 0 
1 38 -30 0 
1 34 -76 0 
1 -49 -30 0 
1 77 -64 0 
1 70 132 0 
1 -55 12 0 
1 118 -65 0 
1 -98 70 0 
1 -5 46 0 
1 -141 137 0 
1 105 8 0 
1 102 -133 0 
1 -4 -43 0 
1 -106 60 0 
1 35 113 0 
1 42 13 0 
1 37 -112 0 
1 134 -41 0 
1 -55 -23 0 
1 -112 50 0 
1 4 -117 0 
1 -96 -58 0 
1 48 64 0 
1 -78 -96 0 
1 113 30 0 
1 64 102 0 
1 49 109 0 
1 -39 52 0 
1 -124 80 0 
1 135 -54 0 
1 113 22 0 
1 -7 40 0 
1 139 99 0 
